n_res = 4;
rc = [ 0, 0, 0, 0 ];
n_tasks = 30;
d = [ 10, 10, 10, 5, 6, 5, 10, 1, 2, 1, 5, 7, 10, 1, 9, 6, 7, 1, 3, 3, 5, 6, 4, 4, 8, 10, 10, 10, 7, 4 ];
rr = [| 0, 0, 0, 0, 0, 0, 0, 0, 0, 0, 0, 0, 0, 0, 0, 0, 0, 0, 0, 0, 0, 0, 0, 0, 0, 0, 0, 0, 0, 0
      | 0, 0, 0, 0, 0, 0, 0, 0, 0, 0, 0, 0, 0, 0, 0, 0, 0, 0, 0, 0, 0, 0, 0, 0, 0, 0, 0, 0, 0, 0
      | 0, 0, 0, 0, 0, 0, 0, 0, 0, 0, 0, 0, 0, 0, 0, 0, 0, 0, 0, 0, 0, 0, 0, 0, 0, 0, 0, 0, 0, 0
      | 0, 0, 0, 0, 0, 0, 0, 0, 0, 0, 0, 0, 0, 0, 0, 0, 0, 0, 0, 0, 0, 0, 0, 0, 0, 0, 0, 0, 0, 0 |];
suc = [ { 6, 12 },
       { 13, 19, 25 },
       { 4, 7, 16 },
       { 5, 8, 29 },
       { 6, 13, 20 },
       { 15, 23 },
       { 9, 13, 23 },
       { 21 },
       { 10, 27 },
       { 11, 14, 20 },
       { 18 },
       { 15, 22 },
       { 15, 22 },
       { 17 },
       { 27, 28 },
       { 24 },
       { 24 },
       { 24, 25, 28 },
       { 20, 23 },
       { 21 },
       { 22, 26 },
       { 28, 30 },
       { 26, 27 },
       { 26, 29 },
       { 29 },
       { 30 },
       { 30 },
       {  },
       {  },
       {  } ];
